sat
(:max-memory         18.04
 :memory             18.04
 :nlsat-conflicts    1
 :nlsat-propagations 13
 :nlsat-stages       5
 :num-allocs         22459
 :rlimit-count       2810
 :time               0.00
 :total-time         0.01)
